\ LP format - for model browsing. Use MPS format to capture full model detail.
Maximize
  53 C0(2) + 27 C1(2) + 13 C2(2) + 80 C3(2) + 47 C4(2) + 67 C5(2) + 53 C6(2)
   + 73 C7(2) + 47 C8(2)
Subject To
 c0: C0(2) + C3(2) + C6(2) = 1
 c1: C1(2) + C4(2) + C7(2) = 1
 c2: C2(2) + C5(2) + C8(2) = 1
 c3: C0(2) + C1(2) + C2(2) <= 1
 c4: C3(2) + C4(2) + C5(2) <= 1
 c5: C6(2) + C7(2) + C8(2) <= 1
Bounds
End
